Minimize
+ 3 x_0 + 5 x_1 + 2 x_2 + 4 x_3 + 6 x_4 + 3 x_5
+ 4 x_6 + 2 x_7 + 5 x_8 + 3 x_9 + 4 x_10 + 6 x_11
+ 5 x_12 + 3 x_13 + 4 x_14 + 2 x_15 + 5 x_16 + 3 x_17
+ 2 x_18 + 4 x_19 + 6 x_20 + 3 x_21 + 5 x_22 + 4 x_23
+ 1 x_24 + 1 x_25 + 1 x_26 + 1 x_27 + 1 x_28 + 1 x_29
+ 1 x_30 + 1 x_31 + 1 x_32 + 1 x_33 + 1 x_34 + 1 x_35
+ 1 x_36 + 1 x_37 + 1 x_38 + 1 x_39 + 1 x_40 + 1 x_41
+ 1 x_42 + 1 x_43 + 1 x_44 + 1 x_45 + 1 x_46 + 1 x_47
+ 142 x_48 + 165 x_49 + 138 x_50 + 174 x_51 + 159 x_52 + 147 x_53
+ 183 x_54 + 121 x_55 + 196 x_56 + 154 x_57 + 132 x_58 + 178 x_59
+ 167 x_60 + 145 x_61 + 189 x_62 + 123 x_63 + 171 x_64 + 156 x_65
+ 134 x_66 + 162 x_67 + 148 x_68 + 177 x_69 + 139 x_70 + 165 x_71
subject to
constr_0: + x_0 - x_24 = 18
constr_1: + x_1 + x_24 - x_25 = 24
constr_2: + x_2 + x_25 - x_26 = 21
constr_3: + x_3 + x_26 - x_27 = 27
constr_4: + x_4 + x_27 - x_28 = 19
constr_5: + x_5 + x_28 - x_29 = 22
constr_6: + x_6 - x_30 = 25
constr_7: + x_7 + x_30 - x_31 = 17
constr_8: + x_8 + x_31 - x_32 = 23
constr_9: + x_9 + x_32 - x_33 = 28
constr_10: + x_10 + x_33 - x_34 = 20
constr_11: + x_11 + x_34 - x_35 = 15
constr_12: + x_12 - x_36 = 22
constr_13: + x_13 + x_36 - x_37 = 26
constr_14: + x_14 + x_37 - x_38 = 19
constr_15: + x_15 + x_38 - x_39 = 24
constr_16: + x_16 + x_39 - x_40 = 21
constr_17: + x_17 + x_40 - x_41 = 18
constr_18: + x_18 - x_42 = 16
constr_19: + x_19 + x_42 - x_43 = 23
constr_20: + x_20 + x_43 - x_44 = 27
constr_21: + x_21 + x_44 - x_45 = 19
constr_22: + x_22 + x_45 - x_46 = 22
constr_23: + x_23 + x_46 - x_47 = 25
constr_24: + x_24 + x_30 + x_36 + x_42 <= 100
constr_25: + x_25 + x_31 + x_37 + x_43 <= 100
constr_26: + x_26 + x_32 + x_38 + x_44 <= 100
constr_27: + x_27 + x_33 + x_39 + x_45 <= 100
constr_28: + x_28 + x_34 + x_40 + x_46 <= 100
constr_29: + x_29 + x_35 + x_41 + x_47 <= 100
constr_30: + x_0 - 80 x_48 <= 0
constr_31: + x_1 - 80 x_49 <= 0
constr_32: + x_2 - 80 x_50 <= 0
constr_33: + x_3 - 80 x_51 <= 0
constr_34: + x_4 - 80 x_52 <= 0
constr_35: + x_5 - 80 x_53 <= 0
constr_36: + x_6 - 80 x_54 <= 0
constr_37: + x_7 - 80 x_55 <= 0
constr_38: + x_8 - 80 x_56 <= 0
constr_39: + x_9 - 80 x_57 <= 0
constr_40: + x_10 - 80 x_58 <= 0
constr_41: + x_11 - 80 x_59 <= 0
constr_42: + x_12 - 80 x_60 <= 0
constr_43: + x_13 - 80 x_61 <= 0
constr_44: + x_14 - 80 x_62 <= 0
constr_45: + x_15 - 80 x_63 <= 0
constr_46: + x_16 - 80 x_64 <= 0
constr_47: + x_17 - 80 x_65 <= 0
constr_48: + x_18 - 80 x_66 <= 0
constr_49: + x_19 - 80 x_67 <= 0
constr_50: + x_20 - 80 x_68 <= 0
constr_51: + x_21 - 80 x_69 <= 0
constr_52: + x_22 - 80 x_70 <= 0
constr_53: + x_23 - 80 x_71 <= 0
constr_54: + 1 x_0 + 0 x_48 + 1 x_6 + 0 x_54 + 1 x_12 + 0 x_60 + 1 x_18 + 0 x_66 <= 90
constr_55: + 1 x_1 + 0 x_49 + 1 x_7 + 0 x_55 + 1 x_13 + 0 x_61 + 1 x_19 + 0 x_67 <= 90
constr_56: + 1 x_2 + 0 x_50 + 1 x_8 + 0 x_56 + 1 x_14 + 0 x_62 + 1 x_20 + 0 x_68 <= 90
constr_57: + 1 x_3 + 0 x_51 + 1 x_9 + 0 x_57 + 1 x_15 + 0 x_63 + 1 x_21 + 0 x_69 <= 90
constr_58: + 1 x_4 + 0 x_52 + 1 x_10 + 0 x_58 + 1 x_16 + 0 x_64 + 1 x_22 + 0 x_70 <= 90
constr_59: + 1 x_5 + 0 x_53 + 1 x_11 + 0 x_59 + 1 x_17 + 0 x_65 + 1 x_23 + 0 x_71 <= 90
Binaries
x_48
x_49
x_50
x_51
x_52
x_53
x_54
x_55
x_56
x_57
x_58
x_59
x_60
x_61
x_62
x_63
x_64
x_65
x_66
x_67
x_68
x_69
x_70
x_71
End
